NAME: berlin52-20-3
TYPE: TSP
COMMENT: min_cost = 4730.84
DIMENSION: 20
EDGE_WEIGHT_TYPE: EUC_2D
NODE_COORD_SECTION
1 1320 315
2 880 660
3 415 635
4 420 555
5 1220 580
6 1740 245
7 1530 5
8 830 485
9 525 1000
10 480 415
11 975 580
12 410 250
13 725 370
14 1340 725
15 580 1175
16 595 360
17 720 635
18 1465 200
19 605 625
20 770 610
EOF
